N = 5;
H = 5;
T = 2;

avail = array3d(1..N, 1..H, 1..T, [6, 2, 1, 5, 4, 3, 0, 10, 7, 8, 9, 0, 4, 7, 5, 9, 9, 7, 3, 5, 10, 8, 10, 2, 8, 5, 6, 8, 2, 4, 1, 4, 6, 4, 0, 0, 5, 0, 1, 0, 9, 7, 10, 9, 6, 4, 5, 1, 9, 2]);

r = array2d(1..H, 1..T, [1, 0, 1, 0, 0, 0, 1, 1, 2, 0]);
